param n := 250;
param c := 150;
param : V : p w :=
   0	  91	  81
   1	  51	  41
   2	  37	  27
   3	 105	  95
   4	  56	  46
   5	  79	  69
   6	  55	  45
   7	  49	  39
   8	  42	  32
   9	 108	  98
  10	  51	  41
  11	  56	  46
  12	 110	 100
  13	  96	  86
  14	  94	  84
  15	  49	  39
  16	  77	  67
  17	  44	  34
  18	 102	  92
  19	  69	  59
  20	  53	  43
  21	  31	  21
  22	  66	  56
  23	  98	  88
  24	  36	  26
  25	  45	  35
  26	  61	  51
  27	  32	  22
  28	 110	 100
  29	 106	  96
  30	  59	  49
  31	 105	  95
  32	  48	  38
  33	  72	  62
  34	  73	  63
  35	 107	  97
  36	  52	  42
  37	  72	  62
  38	 110	 100
  39	  53	  43
  40	  54	  44
  41	  87	  77
  42	 107	  97
  43	 104	  94
  44	  78	  68
  45	  33	  23
  46	  60	  50
  47	  46	  36
  48	  99	  89
  49	  68	  58
  50	 107	  97
  51	  37	  27
  52	  74	  64
  53	  75	  65
  54	  64	  54
  55	  68	  58
  56	  34	  24
  57	  45	  35
  58	  43	  33
  59	  73	  63
  60	  42	  32
  61	  60	  50
  62	  68	  58
  63	 100	  90
  64	  54	  44
  65	  60	  50
  66	  58	  48
  67	  31	  21
  68	  82	  72
  69	  85	  75
  70	  31	  21
  71	  84	  74
  72	  38	  28
  73	 105	  95
  74	  87	  77
  75	  79	  69
  76	 106	  96
  77	  34	  24
  78	  67	  57
  79	  95	  85
  80	  82	  72
  81	 106	  96
  82	  60	  50
  83	  93	  83
  84	  75	  65
  85	  72	  62
  86	 109	  99
  87	 103	  93
  88	  33	  23
  89	  87	  77
  90	 104	  94
  91	  41	  31
  92	  60	  50
  93	  43	  33
  94	  89	  79
  95	  83	  73
  96	  33	  23
  97	  65	  55
  98	  54	  44
  99	  88	  78
 100	  94	  84
 101	  76	  66
 102	  41	  31
 103	  69	  59
 104	 107	  97
 105	 105	  95
 106	  32	  22
 107	  86	  76
 108	 100	  90
 109	  76	  66
 110	  39	  29
 111	 110	 100
 112	 100	  90
 113	 102	  92
 114	  60	  50
 115	  59	  49
 116	  57	  47
 117	  53	  43
 118	  47	  37
 119	  50	  40
 120	  70	  60
 121	  62	  52
 122	  64	  54
 123	 109	  99
 124	  44	  34
 125	  56	  46
 126	  98	  88
 127	 107	  97
 128	  95	  85
 129	  49	  39
 130	  42	  32
 131	  61	  51
 132	 105	  95
 133	  64	  54
 134	 109	  99
 135	  96	  86
 136	  58	  48
 137	 100	  90
 138	  38	  28
 139	  35	  25
 140	  96	  86
 141	  49	  39
 142	  84	  74
 143	  36	  26
 144	  48	  38
 145	  70	  60
 146	  51	  41
 147	  77	  67
 148	  90	  80
 149	  43	  33
 150	  47	  37
 151	  72	  62
 152	  81	  71
 153	  97	  87
 154	  41	  31
 155	  82	  72
 156	  94	  84
 157	  94	  84
 158	  63	  53
 159	  95	  85
 160	  42	  32
 161	  34	  24
 162	  98	  88
 163	  64	  54
 164	  38	  28
 165	  46	  36
 166	 101	  91
 167	  71	  61
 168	  39	  29
 169	  78	  68
 170	  79	  69
 171	  45	  35
 172	  40	  30
 173	  98	  88
 174	  95	  85
 175	  97	  87
 176	  80	  70
 177	  80	  70
 178	  69	  59
 179	  36	  26
 180	  83	  73
 181	  37	  27
 182	  54	  44
 183	  37	  27
 184	  45	  35
 185	  48	  38
 186	  75	  65
 187	  31	  21
 188	  79	  69
 189	  69	  59
 190	  45	  35
 191	  80	  70
 192	  50	  40
 193	  94	  84
 194	  52	  42
 195	 102	  92
 196	  34	  24
 197	  56	  46
 198	  88	  78
 199	  70	  60
 200	  86	  76
 201	  53	  43
 202	  59	  49
 203	  89	  79
 204	  75	  65
 205	  34	  24
 206	  38	  28
 207	  53	  43
 208	  36	  26
 209	 103	  93
 210	  72	  62
 211	 101	  91
 212	  31	  21
 213	  31	  21
 214	  42	  32
 215	  44	  34
 216	  96	  86
 217	  37	  27
 218	  89	  79
 219	  44	  34
 220	  98	  88
 221	 103	  93
 222	  68	  58
 223	  87	  77
 224	  72	  62
 225	  97	  87
 226	 109	  99
 227	  71	  61
 228	  93	  83
 229	  85	  75
 230	 109	  99
 231	 103	  93
 232	  49	  39
 233	  95	  85
 234	  41	  31
 235	  79	  69
 236	  58	  48
 237	  77	  67
 238	  60	  50
 239	  34	  24
 240	  59	  49
 241	  92	  82
 242	 107	  97
 243	  96	  86
 244	  31	  21
 245	  96	  86
 246	  51	  41
 247	 110	 100
 248	  94	  84
 249	  87	  77
;

set E :=
   0	   2
   0	   7
   0	  13
   0	  14
   0	  25
   0	  42
   0	  45
   0	  46
   0	  47
   0	  55
   0	  62
   0	  68
   0	  71
   0	  73
   0	 101
   0	 104
   0	 108
   0	 116
   0	 117
   0	 159
   0	 160
   0	 182
   0	 183
   0	 200
   0	 221
   0	 223
   0	 237
   0	 247
   1	  13
   1	  32
   1	  42
   1	  55
   1	  62
   1	  75
   1	 112
   1	 117
   1	 121
   1	 129
   1	 132
   1	 159
   1	 169
   1	 170
   1	 171
   1	 173
   1	 181
   1	 189
   1	 220
   1	 222
   1	 225
   1	 226
   1	 232
   1	 236
   2	   7
   2	  20
   2	  29
   2	  31
   2	  36
   2	  55
   2	  89
   2	 100
   2	 104
   2	 122
   2	 125
   2	 135
   2	 165
   2	 167
   2	 177
   2	 185
   2	 192
   2	 193
   2	 195
   2	 202
   2	 209
   2	 210
   2	 222
   2	 228
   3	  16
   3	  18
   3	  55
   3	  58
   3	  61
   3	  63
   3	  70
   3	  80
   3	 106
   3	 124
   3	 131
   3	 145
   3	 171
   3	 177
   3	 180
   3	 190
   3	 197
   3	 198
   3	 228
   3	 243
   3	 247
   4	  15
   4	  36
   4	  38
   4	  43
   4	  45
   4	  58
   4	  63
   4	  82
   4	 104
   4	 117
   4	 134
   4	 137
   4	 144
   4	 147
   4	 171
   4	 182
   4	 185
   4	 188
   4	 189
   4	 194
   4	 206
   4	 219
   4	 220
   4	 227
   4	 235
   5	   6
   5	  23
   5	  39
   5	  41
   5	  48
   5	  53
   5	  71
   5	  72
   5	  85
   5	  87
   5	 104
   5	 109
   5	 117
   5	 123
   5	 128
   5	 143
   5	 159
   5	 165
   5	 167
   5	 169
   5	 173
   5	 175
   5	 177
   5	 192
   5	 205
   5	 221
   5	 228
   5	 235
   5	 248
   6	  12
   6	  42
   6	  69
   6	  84
   6	  91
   6	 113
   6	 116
   6	 117
   6	 135
   6	 145
   6	 153
   6	 174
   6	 181
   6	 182
   6	 199
   6	 206
   6	 210
   6	 245
   7	  14
   7	  17
   7	  18
   7	  24
   7	  51
   7	  54
   7	  81
   7	  89
   7	  98
   7	 100
   7	 101
   7	 115
   7	 147
   7	 152
   7	 154
   7	 156
   7	 163
   7	 166
   7	 177
   7	 179
   7	 184
   7	 186
   7	 203
   7	 218
   7	 219
   7	 228
   8	  17
   8	  20
   8	  22
   8	  30
   8	  33
   8	  56
   8	  81
   8	 112
   8	 130
   8	 131
   8	 132
   8	 147
   8	 149
   8	 167
   8	 176
   8	 180
   8	 183
   8	 244
   8	 246
   8	 249
   9	  14
   9	  18
   9	  20
   9	  22
   9	  31
   9	  37
   9	  41
   9	  46
   9	  53
   9	  55
   9	  71
   9	  91
   9	  97
   9	 102
   9	 109
   9	 123
   9	 124
   9	 128
   9	 134
   9	 145
   9	 150
   9	 160
   9	 188
   9	 192
   9	 212
   9	 215
   9	 219
   9	 232
   9	 245
  10	  13
  10	  15
  10	  30
  10	  52
  10	  56
  10	  65
  10	  70
  10	  81
  10	  82
  10	  88
  10	  91
  10	  94
  10	  97
  10	 104
  10	 110
  10	 117
  10	 120
  10	 142
  10	 161
  10	 162
  10	 167
  10	 171
  10	 175
  10	 188
  10	 194
  10	 196
  10	 210
  10	 211
  10	 236
  11	  16
  11	  18
  11	  19
  11	  20
  11	  25
  11	  32
  11	  42
  11	  53
  11	  60
  11	  70
  11	  77
  11	  78
  11	  81
  11	  87
  11	 108
  11	 109
  11	 111
  11	 112
  11	 113
  11	 115
  11	 123
  11	 135
  11	 148
  11	 161
  11	 170
  11	 174
  11	 179
  11	 181
  11	 188
  11	 201
  11	 219
  11	 226
  11	 227
  11	 230
  11	 234
  11	 236
  12	  13
  12	  36
  12	  70
  12	  77
  12	  95
  12	 112
  12	 129
  12	 134
  12	 158
  12	 161
  12	 162
  12	 166
  12	 176
  12	 184
  12	 208
  12	 214
  12	 218
  12	 229
  12	 230
  12	 233
  13	  25
  13	  37
  13	  45
  13	  77
  13	  80
  13	  90
  13	  91
  13	  95
  13	  97
  13	  99
  13	 102
  13	 122
  13	 137
  13	 161
  13	 177
  13	 178
  13	 186
  13	 196
  13	 202
  13	 206
  13	 213
  13	 214
  13	 217
  13	 224
  13	 230
  13	 245
  13	 246
  13	 248
  14	  16
  14	  30
  14	  34
  14	  37
  14	  39
  14	  67
  14	  77
  14	 101
  14	 102
  14	 107
  14	 115
  14	 141
  14	 145
  14	 146
  14	 150
  14	 186
  14	 193
  14	 202
  14	 204
  14	 207
  14	 218
  14	 219
  14	 223
  15	  20
  15	  23
  15	  28
  15	  37
  15	  58
  15	  63
  15	  64
  15	  70
  15	  86
  15	  89
  15	  94
  15	 104
  15	 123
  15	 128
  15	 129
  15	 137
  15	 149
  15	 156
  15	 159
  15	 165
  15	 177
  15	 191
  15	 195
  15	 198
  15	 203
  15	 220
  15	 230
  15	 233
  16	  20
  16	  27
  16	  32
  16	  42
  16	  44
  16	  61
  16	  67
  16	  69
  16	  73
  16	  79
  16	  82
  16	  97
  16	 103
  16	 104
  16	 110
  16	 122
  16	 152
  16	 157
  16	 160
  16	 169
  16	 171
  16	 185
  16	 188
  16	 191
  16	 208
  16	 210
  16	 228
  16	 234
  16	 235
  16	 248
  17	  22
  17	  28
  17	  35
  17	  38
  17	  50
  17	  59
  17	  60
  17	  63
  17	  66
  17	 100
  17	 105
  17	 109
  17	 115
  17	 127
  17	 141
  17	 144
  17	 148
  17	 151
  17	 159
  17	 169
  17	 190
  17	 191
  17	 195
  17	 210
  17	 214
  17	 218
  17	 221
  17	 224
  17	 227
  17	 238
  18	  27
  18	  32
  18	  55
  18	  65
  18	  81
  18	  85
  18	  90
  18	  96
  18	 105
  18	 107
  18	 116
  18	 118
  18	 131
  18	 141
  18	 145
  18	 157
  18	 170
  18	 174
  18	 185
  18	 188
  18	 191
  18	 194
  18	 197
  18	 218
  18	 223
  18	 228
  18	 232
  18	 234
  18	 239
  19	  30
  19	  37
  19	  46
  19	  73
  19	  76
  19	  83
  19	 112
  19	 124
  19	 135
  19	 154
  19	 165
  19	 180
  19	 187
  19	 189
  19	 192
  19	 197
  19	 205
  19	 206
  19	 213
  19	 226
  19	 229
  20	  22
  20	  31
  20	  36
  20	  72
  20	  78
  20	  93
  20	  97
  20	  98
  20	  99
  20	 108
  20	 131
  20	 151
  20	 156
  20	 157
  20	 161
  20	 164
  20	 172
  20	 178
  20	 191
  20	 200
  20	 216
  20	 218
  20	 222
  20	 227
  20	 238
  21	  23
  21	  31
  21	  32
  21	  59
  21	  67
  21	  70
  21	  73
  21	  75
  21	  89
  21	  97
  21	 102
  21	 107
  21	 109
  21	 115
  21	 117
  21	 124
  21	 148
  21	 163
  21	 182
  21	 184
  21	 195
  21	 204
  21	 219
  21	 221
  21	 229
  21	 231
  21	 235
  21	 236
  21	 238
  21	 242
  21	 247
  22	  31
  22	  38
  22	  42
  22	  53
  22	  65
  22	  73
  22	  74
  22	  89
  22	 124
  22	 134
  22	 163
  22	 174
  22	 179
  22	 182
  22	 197
  22	 205
  22	 208
  22	 241
  22	 243
  22	 247
  23	  33
  23	  36
  23	  47
  23	  54
  23	  70
  23	  98
  23	 100
  23	 105
  23	 115
  23	 116
  23	 129
  23	 136
  23	 140
  23	 142
  23	 169
  23	 177
  23	 190
  23	 195
  23	 218
  23	 224
  23	 239
  24	  27
  24	  28
  24	  33
  24	  42
  24	  44
  24	  74
  24	 119
  24	 122
  24	 127
  24	 130
  24	 140
  24	 149
  24	 168
  24	 172
  24	 180
  24	 184
  24	 189
  24	 197
  24	 249
  25	  31
  25	  46
  25	  51
  25	  53
  25	  67
  25	  71
  25	  81
  25	  88
  25	  91
  25	 110
  25	 119
  25	 144
  25	 145
  25	 153
  25	 154
  25	 181
  25	 200
  25	 228
  25	 231
  25	 232
  25	 233
  25	 244
  25	 247
  26	  36
  26	  46
  26	  56
  26	  64
  26	  70
  26	  78
  26	  81
  26	  90
  26	  91
  26	 104
  26	 109
  26	 113
  26	 126
  26	 127
  26	 137
  26	 139
  26	 143
  26	 154
  26	 159
  26	 162
  26	 166
  26	 173
  26	 175
  26	 192
  26	 200
  26	 202
  26	 209
  26	 230
  27	  41
  27	  47
  27	  64
  27	  66
  27	  88
  27	  91
  27	 110
  27	 119
  27	 124
  27	 127
  27	 140
  27	 144
  27	 157
  27	 161
  27	 199
  27	 200
  27	 204
  27	 211
  27	 220
  27	 223
  27	 224
  27	 234
  27	 243
  27	 248
  28	  33
  28	  45
  28	  46
  28	  67
  28	  72
  28	  77
  28	  79
  28	  80
  28	  85
  28	 111
  28	 121
  28	 124
  28	 127
  28	 133
  28	 140
  28	 141
  28	 159
  28	 176
  28	 191
  28	 203
  28	 205
  28	 214
  28	 234
  29	  44
  29	  50
  29	  76
  29	  82
  29	  97
  29	  99
  29	 107
  29	 117
  29	 128
  29	 161
  29	 170
  29	 194
  29	 229
  30	  31
  30	  38
  30	  42
  30	  51
  30	  80
  30	  85
  30	  86
  30	  93
  30	 112
  30	 118
  30	 130
  30	 153
  30	 185
  30	 186
  30	 191
  30	 198
  30	 199
  30	 204
  30	 207
  30	 235
  31	  35
  31	  46
  31	  82
  31	  85
  31	  87
  31	 100
  31	 107
  31	 112
  31	 160
  31	 163
  31	 174
  31	 179
  31	 202
  31	 203
  31	 213
  31	 220
  31	 221
  31	 229
  31	 230
  31	 237
  32	  55
  32	  60
  32	  61
  32	  70
  32	  77
  32	  80
  32	  97
  32	 107
  32	 116
  32	 143
  32	 160
  32	 161
  32	 167
  32	 168
  32	 171
  32	 174
  32	 181
  32	 184
  32	 240
  33	  81
  33	  95
  33	 108
  33	 110
  33	 116
  33	 117
  33	 121
  33	 123
  33	 142
  33	 147
  33	 166
  33	 167
  33	 177
  33	 188
  33	 192
  33	 193
  33	 201
  33	 224
  33	 246
  33	 247
  34	  43
  34	  58
  34	  71
  34	  77
  34	  83
  34	  90
  34	  97
  34	 102
  34	 118
  34	 139
  34	 146
  34	 159
  34	 166
  34	 170
  34	 176
  34	 178
  34	 190
  34	 203
  34	 208
  34	 216
  34	 218
  34	 220
  34	 233
  34	 239
  34	 242
  35	  66
  35	  83
  35	  86
  35	 102
  35	 125
  35	 152
  35	 185
  35	 214
  35	 224
  35	 231
  35	 239
  36	  42
  36	  55
  36	  56
  36	  74
  36	  78
  36	  95
  36	 107
  36	 111
  36	 116
  36	 120
  36	 125
  36	 154
  36	 166
  36	 179
  36	 184
  36	 201
  36	 205
  36	 208
  36	 214
  36	 215
  37	  41
  37	  69
  37	  74
  37	  81
  37	  87
  37	  90
  37	  97
  37	  99
  37	 104
  37	 114
  37	 119
  37	 134
  37	 137
  37	 139
  37	 143
  37	 144
  37	 157
  37	 159
  37	 161
  37	 167
  37	 173
  37	 180
  37	 187
  37	 203
  37	 225
  37	 233
  37	 246
  38	  40
  38	  45
  38	  50
  38	  60
  38	  63
  38	  73
  38	  79
  38	  82
  38	 105
  38	 126
  38	 149
  38	 156
  38	 160
  38	 162
  38	 166
  38	 171
  38	 188
  38	 191
  38	 198
  38	 216
  38	 222
  38	 224
  38	 231
  39	  49
  39	  62
  39	  81
  39	 105
  39	 108
  39	 112
  39	 144
  39	 150
  39	 154
  39	 158
  39	 163
  39	 178
  39	 183
  39	 185
  39	 192
  39	 206
  39	 207
  39	 214
  39	 226
  39	 227
  39	 231
  39	 247
  40	  43
  40	  64
  40	  65
  40	  68
  40	  72
  40	  73
  40	  77
  40	  80
  40	  81
  40	  94
  40	 100
  40	 115
  40	 119
  40	 126
  40	 131
  40	 153
  40	 154
  40	 169
  40	 228
  40	 234
  40	 236
  40	 242
  41	  47
  41	  68
  41	  70
  41	  78
  41	  87
  41	  92
  41	 148
  41	 149
  41	 151
  41	 156
  41	 162
  41	 167
  41	 168
  41	 173
  41	 183
  41	 189
  41	 193
  41	 205
  41	 219
  42	  48
  42	  54
  42	  60
  42	  68
  42	  72
  42	  81
  42	  95
  42	 123
  42	 131
  42	 135
  42	 163
  42	 168
  42	 210
  42	 212
  42	 218
  42	 220
  42	 221
  42	 234
  43	  87
  43	  90
  43	  92
  43	 105
  43	 106
  43	 113
  43	 130
  43	 142
  43	 159
  43	 161
  43	 163
  43	 165
  43	 191
  43	 195
  43	 197
  43	 201
  43	 206
  43	 208
  43	 212
  43	 221
  43	 233
  43	 245
  43	 248
  44	  46
  44	  53
  44	  57
  44	  92
  44	  93
  44	 113
  44	 158
  44	 159
  44	 160
  44	 187
  44	 189
  44	 190
  44	 235
  44	 238
  44	 244
  45	  63
  45	  78
  45	  86
  45	  95
  45	 109
  45	 119
  45	 126
  45	 129
  45	 146
  45	 152
  45	 160
  45	 169
  45	 190
  45	 207
  45	 215
  45	 234
  45	 242
  45	 246
  46	  55
  46	  59
  46	  60
  46	  75
  46	  78
  46	  84
  46	  87
  46	  97
  46	  98
  46	 107
  46	 146
  46	 150
  46	 157
  46	 177
  46	 198
  46	 199
  46	 204
  46	 220
  46	 221
  46	 248
  47	  49
  47	  64
  47	  86
  47	 100
  47	 151
  47	 247
  48	  51
  48	  55
  48	  60
  48	  61
  48	  65
  48	  75
  48	  79
  48	  81
  48	  87
  48	  96
  48	 100
  48	 115
  48	 130
  48	 141
  48	 157
  48	 158
  48	 202
  48	 222
  48	 248
  48	 249
  49	  54
  49	  61
  49	  64
  49	  68
  49	  77
  49	  94
  49	  95
  49	 107
  49	 127
  49	 130
  49	 139
  49	 141
  49	 164
  49	 167
  49	 194
  49	 196
  49	 202
  49	 205
  49	 219
  49	 228
  50	  55
  50	  60
  50	  87
  50	  98
  50	  99
  50	 123
  50	 172
  50	 176
  50	 182
  50	 193
  50	 210
  50	 226
  50	 241
  50	 243
  51	  53
  51	  66
  51	  67
  51	  76
  51	  87
  51	  89
  51	  93
  51	 100
  51	 135
  51	 149
  51	 158
  51	 165
  51	 179
  51	 204
  51	 216
  51	 218
  51	 222
  51	 228
  51	 242
  51	 245
  52	  54
  52	  60
  52	  62
  52	  73
  52	  77
  52	  88
  52	 194
  52	 208
  52	 235
  52	 244
  52	 249
  53	  59
  53	  78
  53	  96
  53	  97
  53	 107
  53	 111
  53	 117
  53	 120
  53	 133
  53	 135
  53	 148
  53	 158
  53	 161
  53	 185
  53	 197
  53	 201
  53	 204
  53	 205
  53	 215
  53	 223
  53	 227
  53	 245
  54	  83
  54	 104
  54	 109
  54	 116
  54	 123
  54	 158
  54	 171
  54	 184
  54	 186
  54	 199
  54	 200
  54	 214
  54	 248
  55	  78
  55	  92
  55	  99
  55	 102
  55	 110
  55	 130
  55	 154
  55	 161
  55	 180
  55	 204
  55	 205
  55	 209
  55	 219
  55	 226
  55	 237
  55	 246
  56	  58
  56	  67
  56	  84
  56	  85
  56	 102
  56	 110
  56	 111
  56	 127
  56	 152
  56	 153
  56	 179
  56	 181
  56	 210
  56	 222
  56	 234
  56	 244
  57	  62
  57	  67
  57	  70
  57	  91
  57	 105
  57	 107
  57	 117
  57	 143
  57	 150
  57	 151
  57	 154
  57	 166
  57	 168
  57	 171
  57	 181
  57	 193
  57	 208
  57	 214
  57	 230
  57	 232
  57	 241
  57	 245
  57	 248
  57	 249
  58	  60
  58	  65
  58	  70
  58	  74
  58	  76
  58	  93
  58	  94
  58	 102
  58	 107
  58	 110
  58	 112
  58	 113
  58	 115
  58	 123
  58	 136
  58	 137
  58	 140
  58	 145
  58	 162
  58	 168
  58	 180
  58	 190
  58	 204
  58	 209
  58	 218
  58	 232
  59	  99
  59	 105
  59	 112
  59	 118
  59	 127
  59	 149
  59	 155
  59	 156
  59	 169
  59	 182
  59	 188
  59	 194
  59	 198
  59	 208
  59	 220
  59	 243
  60	  66
  60	  97
  60	 118
  60	 120
  60	 126
  60	 131
  60	 202
  60	 208
  60	 215
  60	 220
  60	 230
  60	 237
  61	  63
  61	  64
  61	  71
  61	  79
  61	  91
  61	 103
  61	 108
  61	 112
  61	 113
  61	 115
  61	 117
  61	 119
  61	 130
  61	 134
  61	 173
  61	 183
  61	 187
  61	 188
  61	 217
  61	 221
  61	 225
  61	 230
  61	 232
  61	 249
  62	  69
  62	  93
  62	 103
  62	 116
  62	 120
  62	 134
  62	 145
  62	 146
  62	 155
  62	 179
  62	 182
  62	 186
  62	 192
  62	 195
  62	 197
  62	 199
  62	 207
  62	 225
  62	 228
  62	 235
  62	 241
  62	 243
  63	  66
  63	  72
  63	  78
  63	  80
  63	  88
  63	 104
  63	 110
  63	 114
  63	 118
  63	 127
  63	 129
  63	 130
  63	 137
  63	 144
  63	 145
  63	 151
  63	 153
  63	 158
  63	 162
  63	 167
  63	 200
  63	 218
  63	 242
  63	 249
  64	  83
  64	 101
  64	 106
  64	 114
  64	 135
  64	 136
  64	 139
  64	 140
  64	 147
  64	 159
  64	 163
  64	 180
  64	 184
  64	 197
  64	 201
  64	 204
  64	 206
  64	 212
  64	 218
  64	 232
  64	 243
  64	 248
  65	  67
  65	  74
  65	  88
  65	 102
  65	 110
  65	 127
  65	 131
  65	 139
  65	 141
  65	 167
  65	 170
  65	 179
  65	 193
  65	 196
  65	 211
  65	 213
  65	 215
  65	 217
  65	 228
  65	 234
  65	 245
  65	 248
  66	  82
  66	  86
  66	 108
  66	 113
  66	 151
  66	 155
  66	 157
  66	 174
  66	 180
  66	 185
  66	 195
  67	  69
  67	  74
  67	  89
  67	 101
  67	 108
  67	 111
  67	 122
  67	 125
  67	 127
  67	 135
  67	 137
  67	 176
  67	 181
  67	 194
  67	 210
  67	 225
  67	 242
  68	  69
  68	  88
  68	 105
  68	 112
  68	 115
  68	 118
  68	 121
  68	 123
  68	 152
  68	 178
  68	 183
  68	 190
  68	 194
  68	 202
  68	 210
  68	 220
  68	 222
  68	 230
  69	  85
  69	  86
  69	  94
  69	  99
  69	 124
  69	 127
  69	 131
  69	 143
  69	 166
  69	 177
  69	 198
  69	 220
  69	 230
  69	 234
  69	 240
  70	  81
  70	  84
  70	  99
  70	 109
  70	 117
  70	 167
  70	 168
  70	 171
  70	 188
  70	 197
  70	 209
  70	 211
  70	 220
  70	 237
  70	 239
  70	 244
  71	  78
  71	  82
  71	  90
  71	  91
  71	  92
  71	 100
  71	 107
  71	 110
  71	 114
  71	 119
  71	 122
  71	 127
  71	 142
  71	 147
  71	 152
  71	 161
  71	 164
  71	 183
  71	 186
  71	 189
  71	 193
  71	 211
  71	 247
  72	  86
  72	  95
  72	  99
  72	 104
  72	 114
  72	 116
  72	 125
  72	 140
  72	 142
  72	 144
  72	 158
  72	 170
  72	 176
  72	 192
  72	 196
  72	 208
  72	 222
  72	 233
  72	 247
  73	  85
  73	  96
  73	  97
  73	 101
  73	 102
  73	 108
  73	 109
  73	 119
  73	 127
  73	 143
  73	 154
  73	 157
  73	 161
  73	 168
  73	 171
  73	 175
  73	 193
  73	 200
  73	 224
  73	 249
  74	 115
  74	 119
  74	 124
  74	 129
  74	 138
  74	 159
  74	 177
  74	 183
  74	 192
  74	 195
  74	 216
  74	 231
  74	 233
  74	 242
  74	 247
  75	  85
  75	  86
  75	  99
  75	 105
  75	 113
  75	 148
  75	 155
  75	 158
  75	 164
  75	 175
  75	 187
  75	 200
  75	 214
  75	 247
  76	  98
  76	  99
  76	 114
  76	 136
  76	 143
  76	 148
  76	 149
  76	 155
  76	 176
  76	 178
  76	 186
  76	 196
  76	 205
  77	  99
  77	 104
  77	 121
  77	 153
  77	 174
  77	 176
  77	 177
  77	 186
  77	 247
  78	  85
  78	  93
  78	  94
  78	 112
  78	 117
  78	 121
  78	 124
  78	 128
  78	 142
  78	 173
  78	 177
  78	 178
  78	 181
  78	 182
  78	 190
  78	 203
  78	 218
  78	 243
  79	  82
  79	 101
  79	 109
  79	 110
  79	 132
  79	 137
  79	 141
  79	 142
  79	 146
  79	 152
  79	 155
  79	 158
  79	 164
  79	 171
  79	 176
  79	 202
  79	 215
  79	 222
  79	 225
  79	 226
  79	 231
  79	 240
  80	  85
  80	  90
  80	  96
  80	  98
  80	 101
  80	 105
  80	 109
  80	 111
  80	 116
  80	 129
  80	 148
  80	 161
  80	 166
  80	 176
  80	 180
  80	 183
  80	 209
  80	 214
  80	 224
  80	 226
  80	 228
  80	 232
  81	  83
  81	  84
  81	 118
  81	 121
  81	 126
  81	 128
  81	 138
  81	 142
  81	 150
  81	 182
  81	 185
  81	 216
  81	 234
  82	  83
  82	 106
  82	 109
  82	 113
  82	 116
  82	 119
  82	 129
  82	 153
  82	 157
  82	 167
  82	 172
  82	 174
  82	 180
  82	 182
  82	 189
  82	 203
  82	 210
  82	 218
  82	 219
  83	  86
  83	  94
  83	 117
  83	 134
  83	 144
  83	 145
  83	 163
  83	 165
  83	 170
  83	 178
  83	 179
  83	 185
  83	 199
  83	 208
  83	 220
  83	 226
  83	 238
  83	 247
  83	 248
  84	  89
  84	 119
  84	 122
  84	 158
  84	 167
  84	 171
  84	 180
  84	 183
  84	 190
  84	 214
  84	 218
  84	 224
  84	 241
  84	 249
  85	  88
  85	  95
  85	 107
  85	 124
  85	 167
  85	 173
  85	 194
  85	 197
  85	 212
  85	 220
  85	 230
  85	 234
  85	 235
  85	 237
  85	 238
  85	 245
  86	 113
  86	 115
  86	 149
  86	 151
  86	 153
  86	 155
  86	 160
  86	 170
  86	 180
  86	 182
  86	 248
  87	  95
  87	 103
  87	 109
  87	 110
  87	 115
  87	 121
  87	 172
  87	 173
  87	 175
  87	 176
  87	 186
  87	 208
  87	 226
  87	 242
  87	 247
  88	 105
  88	 112
  88	 115
  88	 118
  88	 122
  88	 123
  88	 135
  88	 143
  88	 162
  88	 176
  88	 183
  88	 190
  88	 192
  88	 194
  88	 205
  88	 208
  88	 249
  89	  90
  89	  91
  89	 101
  89	 107
  89	 115
  89	 133
  89	 134
  89	 138
  89	 144
  89	 155
  89	 167
  89	 184
  89	 204
  89	 232
  89	 242
  89	 248
  90	  92
  90	 102
  90	 115
  90	 116
  90	 133
  90	 137
  90	 139
  90	 143
  90	 147
  90	 151
  90	 163
  90	 164
  90	 168
  90	 173
  90	 187
  90	 194
  90	 201
  90	 248
  91	  92
  91	 103
  91	 105
  91	 110
  91	 111
  91	 118
  91	 125
  91	 146
  91	 164
  91	 171
  91	 176
  91	 200
  91	 207
  91	 212
  91	 213
  91	 241
  91	 247
  92	  98
  92	  99
  92	 108
  92	 109
  92	 113
  92	 123
  92	 130
  92	 137
  92	 148
  92	 159
  92	 180
  92	 181
  92	 183
  92	 199
  92	 204
  92	 206
  92	 215
  92	 216
  92	 217
  92	 220
  92	 225
  92	 238
  93	 100
  93	 103
  93	 113
  93	 129
  93	 130
  93	 146
  93	 150
  93	 157
  93	 188
  93	 195
  93	 215
  93	 228
  93	 248
  94	  97
  94	 113
  94	 116
  94	 117
  94	 121
  94	 141
  94	 148
  94	 152
  94	 157
  94	 162
  94	 177
  94	 187
  94	 191
  94	 194
  94	 196
  94	 206
  94	 208
  94	 210
  94	 217
  94	 238
  94	 241
  95	  96
  95	 101
  95	 124
  95	 134
  95	 146
  95	 152
  95	 197
  95	 222
  96	 113
  96	 115
  96	 129
  96	 140
  96	 172
  96	 180
  96	 194
  96	 195
  96	 196
  96	 200
  96	 203
  96	 212
  96	 226
  96	 228
  96	 235
  97	 107
  97	 121
  97	 148
  97	 170
  97	 181
  97	 184
  97	 215
  97	 218
  97	 219
  97	 225
  98	  99
  98	 104
  98	 107
  98	 116
  98	 139
  98	 148
  98	 151
  98	 154
  98	 169
  98	 185
  98	 190
  98	 197
  98	 204
  98	 206
  98	 212
  98	 230
  98	 240
  99	 103
  99	 165
  99	 167
  99	 192
  99	 194
  99	 201
  99	 205
  99	 208
  99	 213
  99	 220
  99	 233
  99	 239
 100	 105
 100	 118
 100	 120
 100	 123
 100	 143
 100	 180
 100	 188
 100	 189
 100	 203
 100	 207
 100	 209
 100	 227
 100	 247
 101	 111
 101	 112
 101	 133
 101	 145
 101	 148
 101	 149
 101	 151
 101	 157
 101	 165
 101	 176
 101	 186
 101	 189
 101	 202
 101	 207
 101	 219
 101	 220
 101	 224
 101	 229
 101	 231
 101	 240
 101	 241
 102	 109
 102	 114
 102	 133
 102	 144
 102	 185
 102	 189
 102	 190
 102	 191
 102	 239
 102	 241
 103	 118
 103	 121
 103	 137
 103	 139
 103	 147
 103	 153
 103	 173
 103	 177
 103	 179
 103	 181
 103	 189
 103	 223
 103	 228
 104	 105
 104	 110
 104	 115
 104	 117
 104	 122
 104	 123
 104	 149
 104	 153
 104	 178
 104	 190
 104	 197
 104	 211
 104	 219
 104	 220
 104	 234
 104	 243
 104	 248
 105	 136
 105	 139
 105	 159
 105	 170
 105	 173
 105	 174
 105	 180
 105	 200
 105	 202
 105	 226
 105	 249
 106	 115
 106	 130
 106	 133
 106	 140
 106	 162
 106	 165
 106	 172
 106	 185
 106	 199
 106	 202
 106	 203
 106	 208
 106	 228
 106	 244
 107	 113
 107	 129
 107	 130
 107	 141
 107	 145
 107	 155
 107	 157
 107	 175
 107	 184
 107	 186
 107	 187
 107	 198
 107	 203
 107	 207
 107	 215
 107	 225
 107	 228
 107	 231
 108	 123
 108	 128
 108	 161
 108	 172
 108	 183
 108	 184
 108	 186
 108	 192
 108	 200
 108	 204
 108	 227
 108	 231
 109	 117
 109	 126
 109	 131
 109	 135
 109	 152
 109	 154
 109	 178
 109	 196
 109	 203
 109	 220
 109	 222
 109	 224
 109	 248
 110	 114
 110	 128
 110	 145
 110	 159
 110	 170
 110	 171
 110	 174
 110	 182
 110	 187
 110	 191
 110	 192
 110	 195
 110	 199
 110	 200
 110	 216
 110	 225
 110	 237
 110	 239
 111	 112
 111	 113
 111	 126
 111	 142
 111	 152
 111	 157
 111	 162
 111	 172
 111	 176
 111	 197
 111	 204
 111	 219
 111	 230
 111	 236
 111	 237
 111	 244
 111	 247
 112	 117
 112	 127
 112	 144
 112	 145
 112	 151
 112	 152
 112	 156
 112	 193
 112	 200
 112	 226
 112	 227
 112	 232
 112	 241
 112	 244
 112	 247
 112	 249
 113	 121
 113	 124
 113	 138
 113	 146
 113	 147
 113	 165
 113	 179
 113	 188
 113	 189
 113	 192
 113	 219
 113	 232
 113	 240
 113	 241
 114	 131
 114	 150
 114	 155
 114	 162
 114	 165
 114	 167
 114	 171
 114	 181
 114	 183
 114	 189
 114	 196
 114	 203
 114	 214
 114	 222
 114	 226
 114	 229
 114	 231
 114	 241
 114	 244
 114	 248
 115	 119
 115	 126
 115	 133
 115	 147
 115	 150
 115	 160
 115	 173
 115	 228
 116	 124
 116	 134
 116	 137
 116	 140
 116	 145
 116	 159
 116	 160
 116	 163
 116	 169
 116	 188
 116	 221
 116	 226
 116	 231
 116	 241
 116	 242
 117	 119
 117	 123
 117	 145
 117	 149
 117	 150
 117	 158
 117	 167
 117	 177
 117	 193
 117	 248
 118	 130
 118	 131
 118	 135
 118	 137
 118	 156
 118	 165
 118	 178
 118	 186
 118	 193
 118	 201
 118	 204
 118	 222
 118	 224
 118	 232
 118	 247
 119	 163
 119	 164
 119	 166
 119	 167
 119	 177
 119	 195
 119	 203
 119	 206
 119	 238
 120	 122
 120	 126
 120	 137
 120	 139
 120	 151
 120	 176
 120	 179
 120	 191
 120	 202
 120	 221
 120	 244
 121	 128
 121	 142
 121	 168
 121	 178
 121	 192
 121	 196
 121	 199
 121	 200
 121	 230
 121	 240
 121	 249
 122	 124
 122	 131
 122	 136
 122	 138
 122	 141
 122	 165
 122	 174
 122	 221
 122	 223
 122	 239
 122	 242
 123	 144
 123	 179
 123	 181
 123	 185
 123	 189
 123	 190
 123	 198
 123	 211
 123	 230
 123	 231
 124	 135
 124	 142
 124	 152
 124	 163
 124	 165
 124	 171
 124	 183
 124	 184
 124	 201
 124	 208
 124	 220
 124	 223
 125	 126
 125	 129
 125	 131
 125	 134
 125	 138
 125	 143
 125	 144
 125	 167
 125	 169
 125	 172
 125	 188
 125	 204
 125	 206
 125	 209
 125	 210
 125	 230
 125	 236
 125	 240
 125	 241
 126	 157
 126	 158
 126	 160
 126	 183
 126	 196
 126	 208
 126	 212
 126	 225
 126	 228
 126	 245
 126	 246
 127	 139
 127	 143
 127	 145
 127	 156
 127	 160
 127	 162
 127	 167
 127	 183
 127	 185
 127	 202
 127	 230
 127	 249
 128	 154
 128	 161
 128	 163
 128	 167
 128	 168
 128	 190
 128	 219
 128	 220
 128	 223
 128	 229
 128	 230
 128	 233
 128	 242
 129	 155
 129	 164
 129	 179
 129	 188
 129	 190
 129	 196
 129	 227
 129	 232
 129	 233
 129	 245
 129	 246
 130	 132
 130	 133
 130	 156
 130	 170
 130	 180
 130	 195
 130	 216
 130	 244
 131	 135
 131	 154
 131	 155
 131	 163
 131	 164
 131	 179
 131	 186
 131	 210
 131	 211
 131	 215
 131	 216
 131	 219
 131	 224
 131	 225
 131	 228
 131	 231
 131	 232
 131	 236
 131	 238
 131	 243
 132	 141
 132	 146
 132	 152
 132	 166
 132	 172
 132	 204
 132	 245
 132	 246
 133	 134
 133	 145
 133	 156
 133	 161
 133	 163
 133	 181
 133	 188
 133	 201
 133	 217
 133	 226
 134	 135
 134	 144
 134	 154
 134	 169
 134	 185
 134	 208
 134	 211
 134	 214
 134	 224
 134	 229
 134	 237
 134	 241
 134	 247
 135	 136
 135	 140
 135	 147
 135	 151
 135	 154
 135	 164
 135	 165
 135	 169
 135	 179
 135	 182
 135	 187
 135	 201
 135	 204
 135	 221
 135	 222
 135	 230
 135	 231
 136	 138
 136	 144
 136	 145
 136	 149
 136	 151
 136	 152
 136	 154
 136	 155
 136	 171
 136	 176
 136	 180
 136	 219
 136	 220
 137	 159
 137	 173
 137	 184
 137	 186
 137	 187
 137	 194
 137	 196
 137	 199
 137	 203
 137	 209
 137	 218
 137	 231
 137	 233
 137	 235
 137	 238
 137	 240
 138	 143
 138	 154
 138	 176
 138	 177
 138	 179
 138	 180
 138	 189
 138	 198
 138	 203
 138	 205
 138	 221
 138	 231
 138	 237
 138	 243
 139	 154
 139	 174
 139	 196
 139	 200
 139	 201
 139	 204
 139	 205
 139	 228
 139	 238
 140	 144
 140	 145
 140	 148
 140	 167
 140	 168
 140	 220
 140	 229
 141	 142
 141	 153
 141	 161
 141	 168
 141	 207
 141	 233
 141	 235
 141	 237
 141	 239
 141	 242
 141	 244
 142	 151
 142	 152
 142	 158
 142	 168
 142	 171
 142	 176
 142	 211
 142	 219
 142	 220
 142	 223
 142	 229
 142	 247
 143	 162
 143	 165
 143	 172
 143	 205
 143	 208
 143	 216
 143	 217
 143	 220
 143	 222
 143	 229
 143	 236
 143	 240
 144	 164
 144	 166
 144	 167
 144	 173
 144	 177
 144	 183
 144	 185
 144	 196
 144	 204
 144	 232
 144	 234
 144	 235
 145	 147
 145	 149
 145	 154
 145	 157
 145	 161
 145	 163
 145	 168
 145	 183
 145	 193
 145	 203
 145	 211
 145	 218
 145	 236
 145	 245
 146	 164
 146	 171
 146	 183
 146	 195
 146	 206
 146	 207
 146	 211
 146	 214
 146	 220
 146	 227
 146	 228
 146	 233
 146	 236
 146	 247
 147	 152
 147	 154
 147	 158
 147	 164
 147	 180
 147	 195
 147	 196
 147	 204
 147	 214
 147	 224
 147	 238
 147	 247
 148	 160
 148	 169
 148	 177
 148	 183
 148	 194
 148	 200
 148	 223
 148	 242
 148	 244
 148	 248
 149	 150
 149	 162
 149	 166
 149	 171
 149	 172
 149	 179
 149	 227
 149	 246
 150	 160
 150	 178
 150	 198
 150	 202
 150	 203
 150	 205
 150	 210
 150	 219
 150	 224
 150	 234
 151	 157
 151	 168
 151	 171
 151	 189
 151	 192
 151	 203
 151	 211
 151	 213
 151	 227
 151	 231
 152	 160
 152	 166
 152	 169
 152	 170
 152	 182
 152	 205
 152	 206
 152	 212
 152	 214
 152	 247
 152	 248
 153	 155
 153	 173
 153	 191
 153	 201
 153	 213
 153	 214
 153	 219
 153	 229
 153	 244
 154	 173
 154	 181
 154	 182
 154	 192
 154	 204
 154	 207
 154	 223
 154	 232
 155	 156
 155	 160
 155	 161
 155	 165
 155	 177
 155	 178
 155	 183
 155	 191
 155	 196
 155	 199
 155	 204
 155	 233
 155	 248
 156	 157
 156	 161
 156	 164
 156	 181
 156	 190
 156	 198
 156	 204
 156	 215
 156	 224
 156	 241
 156	 243
 157	 158
 157	 173
 157	 179
 157	 190
 157	 206
 157	 210
 157	 216
 157	 231
 157	 242
 157	 246
 157	 248
 158	 161
 158	 175
 158	 177
 158	 180
 158	 184
 158	 198
 158	 201
 158	 210
 158	 223
 158	 232
 158	 240
 159	 185
 159	 196
 159	 203
 159	 209
 159	 212
 159	 213
 159	 219
 159	 234
 159	 235
 160	 162
 160	 184
 160	 190
 160	 202
 160	 208
 160	 211
 160	 215
 160	 231
 160	 241
 161	 164
 161	 169
 161	 170
 161	 179
 161	 182
 161	 190
 161	 191
 161	 192
 161	 202
 161	 217
 161	 219
 161	 225
 161	 245
 162	 163
 162	 185
 162	 187
 162	 197
 162	 206
 162	 210
 162	 236
 162	 244
 163	 184
 163	 247
 164	 198
 164	 219
 164	 245
 165	 175
 165	 179
 165	 191
 165	 200
 165	 217
 165	 221
 165	 224
 165	 228
 166	 168
 166	 172
 166	 173
 166	 178
 166	 184
 166	 190
 166	 192
 166	 207
 166	 208
 166	 247
 167	 174
 167	 175
 167	 194
 167	 200
 167	 212
 167	 213
 167	 219
 167	 223
 167	 237
 167	 238
 168	 183
 168	 211
 168	 223
 169	 183
 169	 190
 169	 196
 169	 201
 169	 214
 169	 222
 169	 225
 169	 248
 170	 176
 170	 178
 170	 184
 170	 211
 170	 227
 170	 228
 170	 232
 170	 247
 171	 183
 171	 186
 171	 207
 171	 210
 171	 212
 171	 224
 171	 230
 171	 233
 172	 174
 172	 182
 172	 183
 172	 192
 172	 197
 172	 207
 172	 217
 172	 231
 173	 176
 173	 181
 173	 216
 173	 223
 173	 224
 173	 239
 173	 249
 174	 185
 174	 188
 174	 198
 174	 200
 174	 228
 174	 230
 174	 233
 174	 244
 175	 185
 175	 189
 175	 194
 175	 196
 175	 210
 175	 216
 175	 227
 175	 233
 175	 234
 175	 238
 175	 239
 175	 242
 175	 248
 176	 183
 176	 206
 176	 218
 176	 238
 177	 192
 177	 202
 177	 222
 177	 240
 177	 241
 177	 243
 178	 187
 178	 201
 178	 204
 178	 220
 178	 226
 179	 181
 179	 204
 179	 223
 179	 236
 179	 244
 179	 249
 180	 184
 180	 200
 180	 201
 180	 206
 180	 232
 180	 243
 181	 184
 181	 190
 181	 202
 181	 217
 181	 223
 181	 225
 181	 228
 181	 249
 182	 193
 182	 194
 182	 248
 183	 245
 183	 246
 184	 190
 184	 191
 184	 196
 184	 199
 184	 220
 184	 222
 184	 224
 184	 231
 184	 232
 184	 235
 184	 240
 184	 249
 185	 193
 185	 205
 185	 206
 185	 208
 185	 217
 185	 221
 185	 225
 185	 235
 186	 196
 186	 223
 186	 232
 187	 219
 187	 235
 187	 239
 187	 246
 188	 206
 188	 217
 188	 223
 188	 225
 188	 228
 188	 234
 188	 237
 189	 195
 189	 200
 189	 212
 189	 236
 189	 237
 189	 239
 189	 244
 189	 248
 190	 200
 190	 213
 190	 214
 190	 219
 190	 226
 190	 233
 190	 235
 191	 192
 191	 211
 191	 213
 191	 223
 191	 227
 191	 228
 191	 234
 192	 227
 192	 232
 193	 197
 193	 201
 193	 214
 193	 220
 193	 230
 194	 195
 194	 216
 194	 218
 194	 230
 194	 233
 194	 246
 195	 206
 195	 207
 195	 235
 195	 244
 195	 245
 196	 198
 196	 199
 196	 203
 196	 212
 196	 232
 196	 234
 196	 243
 196	 245
 197	 212
 197	 228
 197	 243
 198	 207
 198	 208
 198	 216
 198	 228
 198	 231
 199	 204
 199	 211
 199	 212
 199	 228
 199	 242
 200	 201
 200	 221
 200	 239
 200	 243
 201	 208
 201	 212
 201	 216
 201	 224
 201	 230
 202	 203
 202	 245
 203	 204
 203	 208
 203	 213
 203	 218
 203	 220
 203	 221
 203	 223
 203	 237
 203	 248
 204	 221
 204	 224
 205	 214
 205	 225
 205	 231
 205	 246
 206	 216
 206	 232
 206	 239
 207	 222
 207	 241
 208	 218
 208	 219
 208	 237
 208	 246
 209	 213
 209	 229
 209	 231
 209	 234
 209	 238
 209	 240
 209	 241
 209	 248
 210	 211
 210	 225
 210	 243
 210	 244
 210	 247
 211	 215
 211	 221
 211	 232
 211	 235
 211	 243
 212	 220
 212	 225
 212	 241
 213	 221
 213	 225
 213	 240
 213	 245
 213	 247
 214	 218
 214	 220
 214	 225
 214	 239
 214	 244
 214	 249
 215	 242
 215	 246
 215	 248
 216	 217
 216	 222
 217	 223
 217	 228
 217	 230
 217	 240
 217	 245
 218	 235
 218	 236
 218	 238
 218	 243
 219	 221
 219	 227
 219	 240
 219	 241
 220	 248
 221	 226
 221	 228
 221	 230
 222	 235
 222	 244
 222	 245
 222	 247
 223	 228
 223	 229
 223	 232
 223	 234
 224	 225
 224	 231
 224	 249
 225	 235
 225	 236
 226	 228
 226	 234
 226	 240
 226	 241
 227	 233
 227	 236
 228	 237
 228	 243
 229	 249
 230	 234
 230	 235
 230	 244
 231	 249
 233	 237
 233	 249
 234	 241
 234	 245
 234	 248
 235	 244
 237	 240
 237	 246
 237	 248
 238	 248
 238	 249
 240	 243
 240	 246
 241	 247
 242	 248
 243	 246
 243	 247
 245	 249
 247	 248
;
